Route #1: 23 24 22 59 60 61 62 50 51 52 54 53 102 104 101 100 98 103 55 31 30 28 27 26 25 21 91
Route #2: 57 56 99 35 36 37 95 40 43 44 41 3 42 4 5 9 8 6 7 11 12 10 2 39 38 96 97 45 94 93
Route #3: 58 105 49 48 32 134 76 77 64 63 79 67 70 69 68 80 33 133 78 74 73
Route #4: 72 47 34 1 75 29 92 90 89 16 13 15 14 88 87 86 84 85 83 20 82 46 118 17 71 66
Route #5: 18 81 112 126 127 128 129 113 116 131 117 119 130 65 19
Route #6: 132 125 123 122 121 124 110 111
Route #7: 120 109 108 107 106 114 115
Cost 1260
